language Essence 1.3

letting bot_end be [51, 77, 646, 639, 651, 9, 617, 635, 636, 71, 630, 598, 107, 108, 554, 30; int(1..16)]
letting bot_start be [429, 648, 199, 112, 172, 527, 94, 230, 221, 484, 134, 114, 556, 569, 34, 604; int(1..16)]
letting buffer_col be 2
letting buffer_row be 2
letting corridor_size be 1
letting n_shelves_col be 2
letting n_shelves_row be 31
letting shelf_col_size be 2
letting shelf_row_size be 1
